Li4 Cl4
1.0
5.152747 0.000000 0.000000
0.000000 5.152747 0.000000
0.000000 0.000000 5.152747
Li Cl
4 4
direct
0.000000 0.000000 0.000000 Li
0.500000 0.500000 0.000000 Li
0.500000 0.000000 0.500000 Li
0.000000 0.500000 0.500000 Li
0.000000 0.000000 0.500000 Cl
0.500000 0.000000 0.000000 Cl
0.000000 0.500000 0.000000 Cl
0.500000 0.500000 0.500000 Cl
